s td 15 56 70
b 1 1 2 3 4 5 6 7 8 9 10 11 13 14 16 18 19 20 21 22 23 24 25 26 28 29 30 31 33 34 37 38 39 40 41 42 43 44 45 47 48 49 50 51 52 54 55 56 57 58 59 61 62 63 64 66 68
b 2 1 2 3 4 5 6 8 9 10 11 13 14 16 18 19 20 21 22 23 24 25 26 28 29 30 31 33 34 36 37 38 39 40 41 42 43 44 45 47 48 49 50 51 52 54 55 56 57 58 59 61 62 63 64 66 68
b 3 2 4 6 8 10 11 12 14 18 20 21 22 23 24 28 29 34 36 39 41 42 43 47 51 52 57 61 64 66 68
b 4 1 2 3 4 5 6 8 9 10 11 13 16 18 19 20 21 22 23 24 25 26 27 28 29 30 31 33 34 36 37 38 39 40 41 42 43 44 45 47 48 49 50 51 52 54 55 56 57 58 59 61 62 63 64 66 68
b 5 1 2 3 4 5 6 8 9 10 11 13 16 18 19 20 21 22 23 24 25 26 27 28 29 30 31 33 34 36 37 38 39 40 41 42 43 44 45 48 49 50 51 52 54 55 56 57 58 59 61 62 63 64 66 67 68
b 6 1 2 3 4 5 6 8 9 10 11 13 16 18 19 20 21 22 23 24 25 26 27 28 29 30 31 33 34 35 36 37 38 39 40 41 43 44 45 48 49 50 51 52 54 55 56 57 58 59 61 62 63 64 66 67 68
b 7 1 2 3 4 5 6 8 9 10 11 13 16 17 18 19 20 21 22 23 24 25 26 27 28 29 30 31 33 34 35 36 37 38 39 40 41 43 44 45 48 49 50 51 52 54 56 57 58 59 61 62 63 66 67 68
b 8 1 3 4 5 6 8 9 10 11 13 16 17 18 20 21 22 23 24 25 26 27 28 29 30 31 33 34 35 36 37 38 39 40 41 43 44 45 46 48 49 50 51 52 54 56 57 58 59 61 62 63 66 67 68
b 9 1 4 6 8 9 10 13 16 17 18 20 21 22 23 24 25 26 27 28 29 30 33 34 35 36 37 38 39 40 41 43 44 45 46 48 49 50 51 52 53 54 56 57 58 61 62 63 66 67 68
b 10 4 8 9 10 13 18 21 22 23 25 26 27 29 30 34 35 37 39 40 41 43 44 46 48 50 51 52 53 56 58 61 62 63 67 68 70
b 11 1 2 3 4 5 6 7 8 9 10 11 13 14 16 18 19 20 21 22 23 24 25 26 28 29 30 31 33 34 37 38 39 40 41 42 43 44 45 47 48 49 50 51 54 55 56 57 58 59 61 62 63 64 65 66 68
b 12 1 2 3 4 5 6 7 8 9 10 11 13 14 16 18 19 20 21 22 23 25 26 28 30 31 33 34 37 38 39 40 41 42 43 44 45 48 49 50 51 54 55 56 57 58 59 61 62 63 64 65 68 69
b 13 1 3 4 5 6 7 8 9 10 11 13 14 16 18 19 20 21 22 23 25 28 30 31 32 33 34 37 38 39 41 42 43 44 45 48 49 50 51 54 55 56 57 58 59 61 62 63 64 65 68 69
b 14 3 4 5 6 8 9 13 14 18 19 20 21 22 23 28 31 32 33 37 38 41 42 43 44 48 50 51 54 55 58 59 60 61 62 63 64 68 69
b 15 5 14 15 19 23 32 33 37 38 41 42 43 50 51 54 55 58 59 60 64 68 69
1 2
1 11
2 3
2 4
4 5
5 6
6 7
7 8
8 9
9 10
11 12
12 13
13 14
14 15
